NAME : problems/30-tsp/instance-43.tsp
COMMENT : No Comment
TYPE : TSP
DIMENSION: 30
EDGE_WEIGHT_TYPE : EUC_2D
NODE_COORD_SECTION
1 1531 6336 
2 3943 6197 
3 6653 6664 
4 7590 4185 
5 8861 8964 
6 7615 4614 
7 4825 2539 
8 4241 5223 
9 7287 3772 
10 683 9320 
11 5937 1994 
12 1949 5875 
13 6683 932 
14 7045 4862 
15 6150 7037 
16 2343 7905 
17 3547 7128 
18 922 896 
19 498 6407 
20 1674 7381 
21 689 9273 
22 6098 3742 
23 8155 3772 
24 7935 6493 
25 4361 2529 
26 9501 1887 
27 4178 4145 
28 2042 2664 
29 2095 8294 
30 8536 3958 
EOF
